c File: instances/20_0.40_1.col
c
c Description: Random graph of size 20 vertices and P(0.39999999999999997) of edges between any two vertices.
p col 20 190
e 1 2
e 1 4
e 1 7
e 1 13
e 1 20
e 2 3
e 2 4
e 2 11
e 2 14
e 3 5
e 3 10
e 3 12
e 3 13
e 3 16
e 3 18
e 3 20
e 4 13
e 4 16
e 4 17
e 4 18
e 4 19
e 5 6
e 5 8
e 5 9
e 5 15
e 5 16
e 5 17
e 5 19
e 6 7
e 6 9
e 6 11
e 6 13
e 6 16
e 6 20
e 7 10
e 7 15
e 7 16
e 7 19
e 7 20
e 8 9
e 8 11
e 8 15
e 9 12
e 9 14
e 9 15
e 9 16
e 9 20
e 10 14
e 10 15
e 10 17
e 11 15
e 11 20
e 12 15
e 12 16
e 12 17
e 12 19
e 13 17
e 14 17
e 14 20
e 15 20
e 16 17
e 16 19
e 16 20
e 17 18
e 18 20